20 44
1 3 4 12 14 15
0 5 11 16 19
6 8 9 11 14 15 17
0 5 7 8 14 15 17 18
0 6 7 9 18 19
1 3 8
2 4 12 13 16
3 4 10 12
2 3 5 15 17
2 4 17
7
1 2 19
0 6 7 13 15
6 12 19
0 2 3 19
0 2 3 8 12
1 6 18
2 3 8 9
3 4 16
1 4 11 13 14
